c *********************************
c * Circuit generated by BenCGen
c *
c * CarrySaveAdder_67_67_67_67_68
c *
c * Ports with 1 gate(s): 2
c * Ports with 2 gate(s): 336
c * Total gates: 338
c *********************************
p cnf 539 1146
1 338 0
-1 -338 0
1 -337 0
338 -337 0
-1 -338 337 0
337 -269 0
-337 269 0
1 68 -339 0
-1 68 339 0
1 -68 339 0
-1 -68 -339 0
339 135 -202 0
-339 135 202 0
339 -135 202 0
-339 -135 -202 0
135 -340 0
339 -340 0
-135 -339 340 0
68 -341 0
1 -341 0
-68 -1 341 0
-340 270 0
-341 270 0
340 341 -270 0
2 69 -342 0
-2 69 342 0
2 -69 342 0
-2 -69 -342 0
342 136 -203 0
-342 136 203 0
342 -136 203 0
-342 -136 -203 0
136 -343 0
342 -343 0
-136 -342 343 0
69 -344 0
2 -344 0
-69 -2 344 0
-343 271 0
-344 271 0
343 344 -271 0
3 70 -345 0
-3 70 345 0
3 -70 345 0
-3 -70 -345 0
345 137 -204 0
-345 137 204 0
345 -137 204 0
-345 -137 -204 0
137 -346 0
345 -346 0
-137 -345 346 0
70 -347 0
3 -347 0
-70 -3 347 0
-346 272 0
-347 272 0
346 347 -272 0
4 71 -348 0
-4 71 348 0
4 -71 348 0
-4 -71 -348 0
348 138 -205 0
-348 138 205 0
348 -138 205 0
-348 -138 -205 0
138 -349 0
348 -349 0
-138 -348 349 0
71 -350 0
4 -350 0
-71 -4 350 0
-349 273 0
-350 273 0
349 350 -273 0
5 72 -351 0
-5 72 351 0
5 -72 351 0
-5 -72 -351 0
351 139 -206 0
-351 139 206 0
351 -139 206 0
-351 -139 -206 0
139 -352 0
351 -352 0
-139 -351 352 0
72 -353 0
5 -353 0
-72 -5 353 0
-352 274 0
-353 274 0
352 353 -274 0
6 73 -354 0
-6 73 354 0
6 -73 354 0
-6 -73 -354 0
354 140 -207 0
-354 140 207 0
354 -140 207 0
-354 -140 -207 0
140 -355 0
354 -355 0
-140 -354 355 0
73 -356 0
6 -356 0
-73 -6 356 0
-355 275 0
-356 275 0
355 356 -275 0
7 74 -357 0
-7 74 357 0
7 -74 357 0
-7 -74 -357 0
357 141 -208 0
-357 141 208 0
357 -141 208 0
-357 -141 -208 0
141 -358 0
357 -358 0
-141 -357 358 0
74 -359 0
7 -359 0
-74 -7 359 0
-358 276 0
-359 276 0
358 359 -276 0
8 75 -360 0
-8 75 360 0
8 -75 360 0
-8 -75 -360 0
360 142 -209 0
-360 142 209 0
360 -142 209 0
-360 -142 -209 0
142 -361 0
360 -361 0
-142 -360 361 0
75 -362 0
8 -362 0
-75 -8 362 0
-361 277 0
-362 277 0
361 362 -277 0
9 76 -363 0
-9 76 363 0
9 -76 363 0
-9 -76 -363 0
363 143 -210 0
-363 143 210 0
363 -143 210 0
-363 -143 -210 0
143 -364 0
363 -364 0
-143 -363 364 0
76 -365 0
9 -365 0
-76 -9 365 0
-364 278 0
-365 278 0
364 365 -278 0
10 77 -366 0
-10 77 366 0
10 -77 366 0
-10 -77 -366 0
366 144 -211 0
-366 144 211 0
366 -144 211 0
-366 -144 -211 0
144 -367 0
366 -367 0
-144 -366 367 0
77 -368 0
10 -368 0
-77 -10 368 0
-367 279 0
-368 279 0
367 368 -279 0
11 78 -369 0
-11 78 369 0
11 -78 369 0
-11 -78 -369 0
369 145 -212 0
-369 145 212 0
369 -145 212 0
-369 -145 -212 0
145 -370 0
369 -370 0
-145 -369 370 0
78 -371 0
11 -371 0
-78 -11 371 0
-370 280 0
-371 280 0
370 371 -280 0
12 79 -372 0
-12 79 372 0
12 -79 372 0
-12 -79 -372 0
372 146 -213 0
-372 146 213 0
372 -146 213 0
-372 -146 -213 0
146 -373 0
372 -373 0
-146 -372 373 0
79 -374 0
12 -374 0
-79 -12 374 0
-373 281 0
-374 281 0
373 374 -281 0
13 80 -375 0
-13 80 375 0
13 -80 375 0
-13 -80 -375 0
375 147 -214 0
-375 147 214 0
375 -147 214 0
-375 -147 -214 0
147 -376 0
375 -376 0
-147 -375 376 0
80 -377 0
13 -377 0
-80 -13 377 0
-376 282 0
-377 282 0
376 377 -282 0
14 81 -378 0
-14 81 378 0
14 -81 378 0
-14 -81 -378 0
378 148 -215 0
-378 148 215 0
378 -148 215 0
-378 -148 -215 0
148 -379 0
378 -379 0
-148 -378 379 0
81 -380 0
14 -380 0
-81 -14 380 0
-379 283 0
-380 283 0
379 380 -283 0
15 82 -381 0
-15 82 381 0
15 -82 381 0
-15 -82 -381 0
381 149 -216 0
-381 149 216 0
381 -149 216 0
-381 -149 -216 0
149 -382 0
381 -382 0
-149 -381 382 0
82 -383 0
15 -383 0
-82 -15 383 0
-382 284 0
-383 284 0
382 383 -284 0
16 83 -384 0
-16 83 384 0
16 -83 384 0
-16 -83 -384 0
384 150 -217 0
-384 150 217 0
384 -150 217 0
-384 -150 -217 0
150 -385 0
384 -385 0
-150 -384 385 0
83 -386 0
16 -386 0
-83 -16 386 0
-385 285 0
-386 285 0
385 386 -285 0
17 84 -387 0
-17 84 387 0
17 -84 387 0
-17 -84 -387 0
387 151 -218 0
-387 151 218 0
387 -151 218 0
-387 -151 -218 0
151 -388 0
387 -388 0
-151 -387 388 0
84 -389 0
17 -389 0
-84 -17 389 0
-388 286 0
-389 286 0
388 389 -286 0
18 85 -390 0
-18 85 390 0
18 -85 390 0
-18 -85 -390 0
390 152 -219 0
-390 152 219 0
390 -152 219 0
-390 -152 -219 0
152 -391 0
390 -391 0
-152 -390 391 0
85 -392 0
18 -392 0
-85 -18 392 0
-391 287 0
-392 287 0
391 392 -287 0
19 86 -393 0
-19 86 393 0
19 -86 393 0
-19 -86 -393 0
393 153 -220 0
-393 153 220 0
393 -153 220 0
-393 -153 -220 0
153 -394 0
393 -394 0
-153 -393 394 0
86 -395 0
19 -395 0
-86 -19 395 0
-394 288 0
-395 288 0
394 395 -288 0
20 87 -396 0
-20 87 396 0
20 -87 396 0
-20 -87 -396 0
396 154 -221 0
-396 154 221 0
396 -154 221 0
-396 -154 -221 0
154 -397 0
396 -397 0
-154 -396 397 0
87 -398 0
20 -398 0
-87 -20 398 0
-397 289 0
-398 289 0
397 398 -289 0
21 88 -399 0
-21 88 399 0
21 -88 399 0
-21 -88 -399 0
399 155 -222 0
-399 155 222 0
399 -155 222 0
-399 -155 -222 0
155 -400 0
399 -400 0
-155 -399 400 0
88 -401 0
21 -401 0
-88 -21 401 0
-400 290 0
-401 290 0
400 401 -290 0
22 89 -402 0
-22 89 402 0
22 -89 402 0
-22 -89 -402 0
402 156 -223 0
-402 156 223 0
402 -156 223 0
-402 -156 -223 0
156 -403 0
402 -403 0
-156 -402 403 0
89 -404 0
22 -404 0
-89 -22 404 0
-403 291 0
-404 291 0
403 404 -291 0
23 90 -405 0
-23 90 405 0
23 -90 405 0
-23 -90 -405 0
405 157 -224 0
-405 157 224 0
405 -157 224 0
-405 -157 -224 0
157 -406 0
405 -406 0
-157 -405 406 0
90 -407 0
23 -407 0
-90 -23 407 0
-406 292 0
-407 292 0
406 407 -292 0
24 91 -408 0
-24 91 408 0
24 -91 408 0
-24 -91 -408 0
408 158 -225 0
-408 158 225 0
408 -158 225 0
-408 -158 -225 0
158 -409 0
408 -409 0
-158 -408 409 0
91 -410 0
24 -410 0
-91 -24 410 0
-409 293 0
-410 293 0
409 410 -293 0
25 92 -411 0
-25 92 411 0
25 -92 411 0
-25 -92 -411 0
411 159 -226 0
-411 159 226 0
411 -159 226 0
-411 -159 -226 0
159 -412 0
411 -412 0
-159 -411 412 0
92 -413 0
25 -413 0
-92 -25 413 0
-412 294 0
-413 294 0
412 413 -294 0
26 93 -414 0
-26 93 414 0
26 -93 414 0
-26 -93 -414 0
414 160 -227 0
-414 160 227 0
414 -160 227 0
-414 -160 -227 0
160 -415 0
414 -415 0
-160 -414 415 0
93 -416 0
26 -416 0
-93 -26 416 0
-415 295 0
-416 295 0
415 416 -295 0
27 94 -417 0
-27 94 417 0
27 -94 417 0
-27 -94 -417 0
417 161 -228 0
-417 161 228 0
417 -161 228 0
-417 -161 -228 0
161 -418 0
417 -418 0
-161 -417 418 0
94 -419 0
27 -419 0
-94 -27 419 0
-418 296 0
-419 296 0
418 419 -296 0
28 95 -420 0
-28 95 420 0
28 -95 420 0
-28 -95 -420 0
420 162 -229 0
-420 162 229 0
420 -162 229 0
-420 -162 -229 0
162 -421 0
420 -421 0
-162 -420 421 0
95 -422 0
28 -422 0
-95 -28 422 0
-421 297 0
-422 297 0
421 422 -297 0
29 96 -423 0
-29 96 423 0
29 -96 423 0
-29 -96 -423 0
423 163 -230 0
-423 163 230 0
423 -163 230 0
-423 -163 -230 0
163 -424 0
423 -424 0
-163 -423 424 0
96 -425 0
29 -425 0
-96 -29 425 0
-424 298 0
-425 298 0
424 425 -298 0
30 97 -426 0
-30 97 426 0
30 -97 426 0
-30 -97 -426 0
426 164 -231 0
-426 164 231 0
426 -164 231 0
-426 -164 -231 0
164 -427 0
426 -427 0
-164 -426 427 0
97 -428 0
30 -428 0
-97 -30 428 0
-427 299 0
-428 299 0
427 428 -299 0
31 98 -429 0
-31 98 429 0
31 -98 429 0
-31 -98 -429 0
429 165 -232 0
-429 165 232 0
429 -165 232 0
-429 -165 -232 0
165 -430 0
429 -430 0
-165 -429 430 0
98 -431 0
31 -431 0
-98 -31 431 0
-430 300 0
-431 300 0
430 431 -300 0
32 99 -432 0
-32 99 432 0
32 -99 432 0
-32 -99 -432 0
432 166 -233 0
-432 166 233 0
432 -166 233 0
-432 -166 -233 0
166 -433 0
432 -433 0
-166 -432 433 0
99 -434 0
32 -434 0
-99 -32 434 0
-433 301 0
-434 301 0
433 434 -301 0
33 100 -435 0
-33 100 435 0
33 -100 435 0
-33 -100 -435 0
435 167 -234 0
-435 167 234 0
435 -167 234 0
-435 -167 -234 0
167 -436 0
435 -436 0
-167 -435 436 0
100 -437 0
33 -437 0
-100 -33 437 0
-436 302 0
-437 302 0
436 437 -302 0
34 101 -438 0
-34 101 438 0
34 -101 438 0
-34 -101 -438 0
438 168 -235 0
-438 168 235 0
438 -168 235 0
-438 -168 -235 0
168 -439 0
438 -439 0
-168 -438 439 0
101 -440 0
34 -440 0
-101 -34 440 0
-439 303 0
-440 303 0
439 440 -303 0
35 102 -441 0
-35 102 441 0
35 -102 441 0
-35 -102 -441 0
441 169 -236 0
-441 169 236 0
441 -169 236 0
-441 -169 -236 0
169 -442 0
441 -442 0
-169 -441 442 0
102 -443 0
35 -443 0
-102 -35 443 0
-442 304 0
-443 304 0
442 443 -304 0
36 103 -444 0
-36 103 444 0
36 -103 444 0
-36 -103 -444 0
444 170 -237 0
-444 170 237 0
444 -170 237 0
-444 -170 -237 0
170 -445 0
444 -445 0
-170 -444 445 0
103 -446 0
36 -446 0
-103 -36 446 0
-445 305 0
-446 305 0
445 446 -305 0
37 104 -447 0
-37 104 447 0
37 -104 447 0
-37 -104 -447 0
447 171 -238 0
-447 171 238 0
447 -171 238 0
-447 -171 -238 0
171 -448 0
447 -448 0
-171 -447 448 0
104 -449 0
37 -449 0
-104 -37 449 0
-448 306 0
-449 306 0
448 449 -306 0
38 105 -450 0
-38 105 450 0
38 -105 450 0
-38 -105 -450 0
450 172 -239 0
-450 172 239 0
450 -172 239 0
-450 -172 -239 0
172 -451 0
450 -451 0
-172 -450 451 0
105 -452 0
38 -452 0
-105 -38 452 0
-451 307 0
-452 307 0
451 452 -307 0
39 106 -453 0
-39 106 453 0
39 -106 453 0
-39 -106 -453 0
453 173 -240 0
-453 173 240 0
453 -173 240 0
-453 -173 -240 0
173 -454 0
453 -454 0
-173 -453 454 0
106 -455 0
39 -455 0
-106 -39 455 0
-454 308 0
-455 308 0
454 455 -308 0
40 107 -456 0
-40 107 456 0
40 -107 456 0
-40 -107 -456 0
456 174 -241 0
-456 174 241 0
456 -174 241 0
-456 -174 -241 0
174 -457 0
456 -457 0
-174 -456 457 0
107 -458 0
40 -458 0
-107 -40 458 0
-457 309 0
-458 309 0
457 458 -309 0
41 108 -459 0
-41 108 459 0
41 -108 459 0
-41 -108 -459 0
459 175 -242 0
-459 175 242 0
459 -175 242 0
-459 -175 -242 0
175 -460 0
459 -460 0
-175 -459 460 0
108 -461 0
41 -461 0
-108 -41 461 0
-460 310 0
-461 310 0
460 461 -310 0
42 109 -462 0
-42 109 462 0
42 -109 462 0
-42 -109 -462 0
462 176 -243 0
-462 176 243 0
462 -176 243 0
-462 -176 -243 0
176 -463 0
462 -463 0
-176 -462 463 0
109 -464 0
42 -464 0
-109 -42 464 0
-463 311 0
-464 311 0
463 464 -311 0
43 110 -465 0
-43 110 465 0
43 -110 465 0
-43 -110 -465 0
465 177 -244 0
-465 177 244 0
465 -177 244 0
-465 -177 -244 0
177 -466 0
465 -466 0
-177 -465 466 0
110 -467 0
43 -467 0
-110 -43 467 0
-466 312 0
-467 312 0
466 467 -312 0
44 111 -468 0
-44 111 468 0
44 -111 468 0
-44 -111 -468 0
468 178 -245 0
-468 178 245 0
468 -178 245 0
-468 -178 -245 0
178 -469 0
468 -469 0
-178 -468 469 0
111 -470 0
44 -470 0
-111 -44 470 0
-469 313 0
-470 313 0
469 470 -313 0
45 112 -471 0
-45 112 471 0
45 -112 471 0
-45 -112 -471 0
471 179 -246 0
-471 179 246 0
471 -179 246 0
-471 -179 -246 0
179 -472 0
471 -472 0
-179 -471 472 0
112 -473 0
45 -473 0
-112 -45 473 0
-472 314 0
-473 314 0
472 473 -314 0
46 113 -474 0
-46 113 474 0
46 -113 474 0
-46 -113 -474 0
474 180 -247 0
-474 180 247 0
474 -180 247 0
-474 -180 -247 0
180 -475 0
474 -475 0
-180 -474 475 0
113 -476 0
46 -476 0
-113 -46 476 0
-475 315 0
-476 315 0
475 476 -315 0
47 114 -477 0
-47 114 477 0
47 -114 477 0
-47 -114 -477 0
477 181 -248 0
-477 181 248 0
477 -181 248 0
-477 -181 -248 0
181 -478 0
477 -478 0
-181 -477 478 0
114 -479 0
47 -479 0
-114 -47 479 0
-478 316 0
-479 316 0
478 479 -316 0
48 115 -480 0
-48 115 480 0
48 -115 480 0
-48 -115 -480 0
480 182 -249 0
-480 182 249 0
480 -182 249 0
-480 -182 -249 0
182 -481 0
480 -481 0
-182 -480 481 0
115 -482 0
48 -482 0
-115 -48 482 0
-481 317 0
-482 317 0
481 482 -317 0
49 116 -483 0
-49 116 483 0
49 -116 483 0
-49 -116 -483 0
483 183 -250 0
-483 183 250 0
483 -183 250 0
-483 -183 -250 0
183 -484 0
483 -484 0
-183 -483 484 0
116 -485 0
49 -485 0
-116 -49 485 0
-484 318 0
-485 318 0
484 485 -318 0
50 117 -486 0
-50 117 486 0
50 -117 486 0
-50 -117 -486 0
486 184 -251 0
-486 184 251 0
486 -184 251 0
-486 -184 -251 0
184 -487 0
486 -487 0
-184 -486 487 0
117 -488 0
50 -488 0
-117 -50 488 0
-487 319 0
-488 319 0
487 488 -319 0
51 118 -489 0
-51 118 489 0
51 -118 489 0
-51 -118 -489 0
489 185 -252 0
-489 185 252 0
489 -185 252 0
-489 -185 -252 0
185 -490 0
489 -490 0
-185 -489 490 0
118 -491 0
51 -491 0
-118 -51 491 0
-490 320 0
-491 320 0
490 491 -320 0
52 119 -492 0
-52 119 492 0
52 -119 492 0
-52 -119 -492 0
492 186 -253 0
-492 186 253 0
492 -186 253 0
-492 -186 -253 0
186 -493 0
492 -493 0
-186 -492 493 0
119 -494 0
52 -494 0
-119 -52 494 0
-493 321 0
-494 321 0
493 494 -321 0
53 120 -495 0
-53 120 495 0
53 -120 495 0
-53 -120 -495 0
495 187 -254 0
-495 187 254 0
495 -187 254 0
-495 -187 -254 0
187 -496 0
495 -496 0
-187 -495 496 0
120 -497 0
53 -497 0
-120 -53 497 0
-496 322 0
-497 322 0
496 497 -322 0
54 121 -498 0
-54 121 498 0
54 -121 498 0
-54 -121 -498 0
498 188 -255 0
-498 188 255 0
498 -188 255 0
-498 -188 -255 0
188 -499 0
498 -499 0
-188 -498 499 0
121 -500 0
54 -500 0
-121 -54 500 0
-499 323 0
-500 323 0
499 500 -323 0
55 122 -501 0
-55 122 501 0
55 -122 501 0
-55 -122 -501 0
501 189 -256 0
-501 189 256 0
501 -189 256 0
-501 -189 -256 0
189 -502 0
501 -502 0
-189 -501 502 0
122 -503 0
55 -503 0
-122 -55 503 0
-502 324 0
-503 324 0
502 503 -324 0
56 123 -504 0
-56 123 504 0
56 -123 504 0
-56 -123 -504 0
504 190 -257 0
-504 190 257 0
504 -190 257 0
-504 -190 -257 0
190 -505 0
504 -505 0
-190 -504 505 0
123 -506 0
56 -506 0
-123 -56 506 0
-505 325 0
-506 325 0
505 506 -325 0
57 124 -507 0
-57 124 507 0
57 -124 507 0
-57 -124 -507 0
507 191 -258 0
-507 191 258 0
507 -191 258 0
-507 -191 -258 0
191 -508 0
507 -508 0
-191 -507 508 0
124 -509 0
57 -509 0
-124 -57 509 0
-508 326 0
-509 326 0
508 509 -326 0
58 125 -510 0
-58 125 510 0
58 -125 510 0
-58 -125 -510 0
510 192 -259 0
-510 192 259 0
510 -192 259 0
-510 -192 -259 0
192 -511 0
510 -511 0
-192 -510 511 0
125 -512 0
58 -512 0
-125 -58 512 0
-511 327 0
-512 327 0
511 512 -327 0
59 126 -513 0
-59 126 513 0
59 -126 513 0
-59 -126 -513 0
513 193 -260 0
-513 193 260 0
513 -193 260 0
-513 -193 -260 0
193 -514 0
513 -514 0
-193 -513 514 0
126 -515 0
59 -515 0
-126 -59 515 0
-514 328 0
-515 328 0
514 515 -328 0
60 127 -516 0
-60 127 516 0
60 -127 516 0
-60 -127 -516 0
516 194 -261 0
-516 194 261 0
516 -194 261 0
-516 -194 -261 0
194 -517 0
516 -517 0
-194 -516 517 0
127 -518 0
60 -518 0
-127 -60 518 0
-517 329 0
-518 329 0
517 518 -329 0
61 128 -519 0
-61 128 519 0
61 -128 519 0
-61 -128 -519 0
519 195 -262 0
-519 195 262 0
519 -195 262 0
-519 -195 -262 0
195 -520 0
519 -520 0
-195 -519 520 0
128 -521 0
61 -521 0
-128 -61 521 0
-520 330 0
-521 330 0
520 521 -330 0
62 129 -522 0
-62 129 522 0
62 -129 522 0
-62 -129 -522 0
522 196 -263 0
-522 196 263 0
522 -196 263 0
-522 -196 -263 0
196 -523 0
522 -523 0
-196 -522 523 0
129 -524 0
62 -524 0
-129 -62 524 0
-523 331 0
-524 331 0
523 524 -331 0
63 130 -525 0
-63 130 525 0
63 -130 525 0
-63 -130 -525 0
525 197 -264 0
-525 197 264 0
525 -197 264 0
-525 -197 -264 0
197 -526 0
525 -526 0
-197 -525 526 0
130 -527 0
63 -527 0
-130 -63 527 0
-526 332 0
-527 332 0
526 527 -332 0
64 131 -528 0
-64 131 528 0
64 -131 528 0
-64 -131 -528 0
528 198 -265 0
-528 198 265 0
528 -198 265 0
-528 -198 -265 0
198 -529 0
528 -529 0
-198 -528 529 0
131 -530 0
64 -530 0
-131 -64 530 0
-529 333 0
-530 333 0
529 530 -333 0
65 132 -531 0
-65 132 531 0
65 -132 531 0
-65 -132 -531 0
531 199 -266 0
-531 199 266 0
531 -199 266 0
-531 -199 -266 0
199 -532 0
531 -532 0
-199 -531 532 0
132 -533 0
65 -533 0
-132 -65 533 0
-532 334 0
-533 334 0
532 533 -334 0
66 133 -534 0
-66 133 534 0
66 -133 534 0
-66 -133 -534 0
534 200 -267 0
-534 200 267 0
534 -200 267 0
-534 -200 -267 0
200 -535 0
534 -535 0
-200 -534 535 0
133 -536 0
66 -536 0
-133 -66 536 0
-535 335 0
-536 335 0
535 536 -335 0
67 134 -537 0
-67 134 537 0
67 -134 537 0
-67 -134 -537 0
537 201 -268 0
-537 201 268 0
537 -201 268 0
-537 -201 -268 0
201 -538 0
537 -538 0
-201 -537 538 0
134 -539 0
67 -539 0
-134 -67 539 0
-538 336 0
-539 336 0
538 539 -336 0
